(declare-const v0 Bool)
(declare-const v1 Bool)
(declare-const v2 Bool)
(declare-const v3 Bool)
(declare-const v4 Bool)
(assert (edge v0 (or (not v1) v2)))
(assert (edge true (or v0 v1)))
(assert (edge (or v1 (not v0)) (or (not v1) (not v0) (not v2))))
(assert (edge (or (not v1) v4 (not v0)) (or (not v4) (not v0))))
(assert (edge true (or v3 (not v1))))
(assert (not (edge (or v1 v4) v3)))